qbf_easy_train/easy_4083_SAT.qdimacs
p cnf 36 106
a 1 21 23 0
e 2 3 4 5 6 7 8 9 10 11 12 13 14 15 16 17 18 19 20 22 24 25 26 27 28 29 30 31 32 33 34 35 36 0
-3 4 -5 0
3 -4 -5 0
-3 -4 5 0
3 4 5 0
2 5 -6 0
-2 -5 -6 0
2 -5 6 0
-2 5 6 0
-6 -1 -7 0
6 1 -7 0
-6 1 7 0
6 -1 7 0
-8 1 0
-8 -7 0
-1 7 8 0
10 -9 0
10 7 0
9 -7 -10 0
-12 -10 0
-12 -11 0
10 11 12 0
13 -8 0
13 -12 0
8 12 -13 0
14 -4 0
14 3 0
4 -3 -14 0
-15 7 0
-15 -14 0
-7 14 15 0
-16 13 0
-16 15 0
-13 -15 16 0
-3 -7 -17 0
3 7 -17 0
-3 7 17 0
3 -7 17 0
-19 17 0
-19 -18 0
-17 18 19 0
-20 17 0
-20 -3 0
-17 3 20 0
21 11 0
21 11 0
-11 -21 0
4 21 -22 0
-4 -21 -22 0
4 -21 22 0
-4 21 22 0
6 2 -24 0
-6 -2 -24 0
6 -2 24 0
-6 2 24 0
-25 -3 0
-25 -6 0
3 6 25 0
24 -25 -26 0
-24 25 -26 0
24 25 26 0
-24 -25 26 0
23 -26 -27 0
-23 26 -27 0
23 26 27 0
-23 -26 27 0
-28 -22 0
-28 -27 0
22 27 28 0
-29 -20 0
-29 28 0
20 -28 29 0
30 -4 0
30 3 0
4 -3 -30 0
-31 30 0
-31 -25 0
-30 25 31 0
-32 5 0
-32 -3 0
-5 3 32 0
-31 -32 -33 0
31 32 -33 0
-31 32 33 0
31 -32 33 0
34 29 0
34 -33 0
-29 33 -34 0
19 34 -35 0
-19 -34 -35 0
19 -34 35 0
-19 34 35 0
-16 -35 -36 0
16 35 -36 0
-16 35 36 0
16 -35 36 0
-6 -25 7 -15 -18 36 27 0
28 -33 -24 -11 -5 0
5 -27 -7 20 -11 0
36 -18 -14 21 10 0
-26 2 27 11 34 -25 16 28 0
-16 36 12 -20 -15 0
2 -22 -30 25 -33 0
21 -35 -36 1 -25 0
-10 20 -18 0
-1 31 13 8 -20 16 34 -5 0
36 0
