sat_easy_train/easy_4083_SAT.dimacs
p cnf 116 381
3 1 0
3 2 0
-1 -2 -3 0
-4 -3 0
-4 -1 0
3 1 4 0
5 -1 0
5 4 0
1 -4 -5 0
-6 4 -7 0
6 -4 -7 0
-6 -4 7 0
6 4 7 0
8 -2 0
8 -7 0
2 7 -8 0
-11 -9 0
-11 -10 0
9 10 11 0
13 1 0
13 -12 0
-1 12 -13 0
-14 11 0
-14 13 0
-11 -13 14 0
15 -11 0
15 14 0
11 -14 -15 0
-17 7 0
-17 -16 0
-7 16 17 0
19 -18 0
19 -7 0
18 7 -19 0
-20 17 0
-20 19 0
-17 -19 20 0
-21 -20 0
-21 1 0
20 -1 21 0
-22 15 0
-22 21 0
-15 -21 22 0
-25 -23 0
-25 24 0
23 -24 25 0
25 -6 -26 0
-25 6 -26 0
25 6 26 0
-25 -6 26 0
-23 27 -28 0
23 -27 -28 0
-23 -27 28 0
23 27 28 0
9 29 -30 0
-9 -29 -30 0
9 -29 30 0
-9 29 30 0
31 28 0
31 -30 0
-28 30 -31 0
32 -26 0
32 31 0
26 -31 -32 0
33 -32 0
33 23 0
32 -23 -33 0
-34 -21 0
-34 -10 0
21 10 34 0
35 -11 0
35 18 0
11 -18 -35 0
-34 35 -36 0
34 -35 -36 0
-34 -35 36 0
34 35 36 0
37 11 0
37 24 0
-11 -24 -37 0
38 37 0
38 24 0
-37 -24 -38 0
39 38 0
39 -27 0
-38 27 -39 0
-36 39 -40 0
36 -39 -40 0
-36 -39 40 0
36 39 40 0
-41 33 0
-41 -40 0
-33 40 41 0
-42 22 0
-42 41 0
-22 -41 42 0
4 -35 -43 0
-4 35 -43 0
4 35 43 0
-4 -35 43 0
-18 29 -44 0
18 -29 -44 0
-18 -29 44 0
18 29 44 0
47 -46 0
47 -45 0
46 45 -47 0
45 47 -48 0
-45 -47 -48 0
45 -47 48 0
-45 47 48 0
-49 15 0
-49 48 0
-15 -48 49 0
44 49 -50 0
-44 -49 -50 0
44 -49 50 0
-44 49 50 0
-43 -50 -51 0
43 50 -51 0
-43 50 51 0
43 -50 51 0
-42 51 -52 0
42 -51 -52 0
-42 -51 52 0
42 51 52 0
-53 -4 -54 0
53 4 -54 0
-53 4 54 0
53 -4 54 0
-55 52 0
-55 54 0
-52 -54 55 0
56 -8 0
56 -55 0
8 55 -56 0
-12 -48 -57 0
12 48 -57 0
-12 48 57 0
12 -48 57 0
-58 56 0
-58 -57 0
-56 57 58 0
5 58 -59 0
-5 -58 -59 0
5 -58 59 0
-5 58 59 0
-60 29 0
-60 -37 0
-29 37 60 0
61 -17 0
61 60 0
17 -60 -61 0
-30 46 -62 0
30 -46 -62 0
-30 -46 62 0
30 46 62 0
-63 -24 0
-63 -62 0
24 62 63 0
-63 13 -64 0
63 -13 -64 0
-63 -13 64 0
63 13 64 0
-65 -64 0
-65 -20 0
64 20 65 0
-66 -20 0
-66 28 0
20 -28 66 0
67 -65 0
67 -66 0
65 66 -67 0
68 -23 0
68 53 0
23 -53 -68 0
-1 46 -69 0
1 -46 -69 0
-1 -46 69 0
1 46 69 0
-70 68 0
-70 -69 0
-68 69 70 0
71 67 0
71 -70 0
-67 70 -71 0
-72 61 0
-72 -71 0
-61 71 72 0
73 -59 0
73 -72 0
59 72 -73 0
74 -12 0
74 30 0
12 -30 -74 0
-75 -74 0
-75 -19 0
74 19 75 0
-76 -14 0
-76 6 0
14 -6 76 0
-77 23 0
-77 -76 0
-23 76 77 0
-75 -77 -78 0
75 77 -78 0
-75 77 78 0
75 -77 78 0
-79 73 0
-79 78 0
-73 -78 79 0
80 9 0
80 -15 0
-9 15 -80 0
81 6 0
81 7 0
-6 -7 -81 0
64 81 -82 0
-64 -81 -82 0
64 -81 82 0
-64 81 82 0
21 -20 -83 0
-21 20 -83 0
21 20 83 0
-21 -20 83 0
-82 -83 -84 0
82 83 -84 0
-82 83 84 0
82 -83 84 0
-80 84 -85 0
80 -84 -85 0
-80 -84 85 0
80 84 85 0
-86 -2 0
-86 10 0
2 -10 86 0
87 86 0
87 3 0
-86 -3 -87 0
-88 -14 0
-88 -60 0
14 60 88 0
89 -26 0
89 -47 0
26 47 -89 0
90 89 0
90 -81 0
-89 81 -90 0
88 90 -91 0
-88 -90 -91 0
88 -90 91 0
-88 90 91 0
-87 -91 -92 0
87 91 -92 0
-87 91 92 0
87 -91 92 0
94 -16 0
94 93 0
16 -93 -94 0
-95 92 0
-95 94 0
-92 -94 95 0
96 -49 0
96 -25 0
49 25 -96 0
97 3 0
97 23 0
-3 -23 -97 0
-97 -23 -98 0
97 23 -98 0
-97 23 98 0
97 -23 98 0
99 26 0
99 -24 0
-26 24 -99 0
-98 -99 -100 0
98 99 -100 0
-98 99 100 0
98 -99 100 0
-101 -96 0
-101 100 0
96 -100 101 0
-95 -101 -102 0
95 101 -102 0
-95 101 102 0
95 -101 102 0
62 -103 0
-62 -103 0
-104 -24 0
-104 -103 0
24 103 104 0
-104 25 -105 0
104 -25 -105 0
-104 -25 105 0
104 25 105 0
106 102 0
106 105 0
-102 -105 -106 0
107 -85 0
107 106 0
85 -106 -107 0
-79 -107 -108 0
79 107 -108 0
-79 107 108 0
79 -107 108 0
109 16 0
109 -18 0
-16 18 -109 0
110 23 0
110 -2 0
-23 2 -110 0
-111 109 0
-111 -110 0
-109 110 111 0
112 30 0
112 2 0
-30 -2 -112 0
111 112 -113 0
-111 -112 -113 0
111 -112 113 0
-111 112 113 0
114 -47 0
114 -1 0
47 1 -114 0
-115 113 0
-115 114 0
-113 -114 115 0
-116 108 0
-116 115 0
-108 -115 116 0
-89 -28 33 -80 39 114 0
46 63 0
9 42 0
35 29 36 -91 -5 0
-93 49 -110 0
-72 -83 110 0
108 67 -72 21 68 -66 0
36 -18 -48 28 0
105 31 1 89 0
-74 -26 102 46 81 94 0
-88 17 34 0
-101 16 25 -104 0
43 -104 -26 48 0
108 61 4 -85 0
83 -86 77 0
102 -27 101 -84 0
97 29 0
-65 56 0
-37 -112 -54 -6 0
14 -37 31 -66 0
-10 -73 102 86 0
-10 -37 0
83 -107 1 0
-21 1 -79 -32 -16 0
49 15 0
-82 83 74 0
64 -85 0
56 -53 0
95 -37 -36 0
57 104 -8 0
-108 24 71 21 111 -11 0
-64 13 -14 0
55 -80 -53 0
-45 74 -30 51 0
-36 14 -78 0
14 91 -89 69 0
86 112 26 0
10 6 -34 0
-2 60 -42 100 0
-99 48 0
-20 59 42 -36 -61 0
-40 -42 45 -78 0
-64 -70 -79 -61 0
47 -107 -17 -18 -62 0
97 -9 -73 110 -52 0
-30 7 0
95 -65 96 -1 24 -68 0
-31 -96 42 0
-83 19 2 0
-98 -102 109 48 -96 0
116 0
